p td 22 69
3 2
6 1
7 6
8 4
8 7
9 2
9 1
9 3
10 5
10 7
11 3
11 4
12 6
12 10
12 3
12 4
12 11
12 9
13 10
13 4
13 9
13 12
13 3
14 9
14 4
14 3
15 6
15 3
15 14
15 1
15 8
17 4
17 11
17 7
17 13
17 10
17 8
17 3
17 16
17 9
17 15
18 13
18 2
18 8
19 15
19 7
19 6
20 17
20 18
20 5
20 14
20 8
20 2
21 12
21 6
21 15
21 5
21 18
21 4
21 17
21 16
21 3
21 11
21 10
22 4
22 10
22 3
22 11
22 7
